(set-info :Origin "This instance was generated by: BanditFuzz-- an RL fuzzer for SMT solvers" )
(set-info :Author "Joe Scott, Fed Mora, Vijay Ganesh" )
(set-info :Contact "Joe Scott, joseph.scott@uwaterloo.ca")
; solvers/z3.sh
; 	time => 0.10529446601867676
; 	answer => unsat
; solvers/bitwuzla.sh
; 	time => 0.08460760116577148
; 	answer => unsat
; solvers/cvc4.sh
; 	time => 0.11605262756347656
; 	answer => err
(set-logic QF_BV)
(declare-const bool_0 Bool)
(declare-const bool_1 Bool)
(declare-const bool_2 Bool)
(declare-const bool_3 Bool)
(declare-const bool_4 Bool)
(declare-const bv_0 (_ BitVec 32))
(declare-const bv_1 (_ BitVec 32))
(declare-const bv_2 (_ BitVec 32))
(declare-const bv_3 (_ BitVec 32))
(declare-const bv_4 (_ BitVec 32))
(assert (bvugt (bvmul (bvnor bv_4 #xbb89420d ) (bvashr #x1d96e974  #xb571f1ad )) (bvnor (bvxnor #x931d9e95  bv_0) (bvnor #xad3e8c8c  bv_3))))
(assert (bvuge (bvnand (bvshl #xd1f32412  bv_4) (bvor #x872aa1db  #x2bd01fb3 )) (bvsmod (bvsmod #xb1730df6  bv_0) (bvsub bv_1 bv_1))))
(assert (=> (bvsle (bvshl #xb0a5eca3  bv_0) (bvmul bv_4 bv_0)) (not (xor bool_1 bool_3))))
(assert (bvule (bvadd (bvmul #x60869a6c  #x861d89f5 ) (bvnor bv_1 bv_2)) (bvashr (bvand #x5638aa51  bv_3) (bvsrem bv_0 bv_4))))
(assert (bvult (bvudiv (bvsmod #x24210d47  bv_4) (bvadd bv_3 #xab0d1eba )) (bvxor (bvadd bv_3 #xa0561d32 ) (bvmul bv_3 bv_0))))
(check-sat)
(exit)
